p cnf 31 70
-2 3 6 0
-2 -25 3 5 0
-2 25 3 -5 0
2 -3 0
2 25 5 -6 0
2 -25 -5 -6 0
3 -17 -4 0
-3 17 0
-3 4 0
4 20 -22 0
-4 -20 0
-4 22 0
5 -19 -20 -21 0
-5 19 0
-5 20 0
-5 21 0
6 -20 -22 7 0
6 -20 -22 5 0
-6 20 0
-6 22 0
-6 -5 -7 0
7 -26 -30 0
-7 26 0
-7 30 0
-8 6 10 0
-8 -27 9 10 0
-8 27 -9 10 0
8 -10 0
8 27 -6 9 0
8 -27 -6 -9 0
9 25 -5 0
-9 -25 0
-9 5 0
10 -18 -4 0
-10 18 0
-10 4 0
-11 23 12 0
-11 4 12 0
11 -12 0
11 -23 -4 0
12 -27 28 -6 0
12 28 -6 9 0
12 27 -28 -6 -9 0
-12 -27 -28 0
-12 -28 9 0
-12 6 0
-12 27 28 -9 0
-13 6 15 0
-13 -29 14 15 0
-13 29 -14 15 0
13 -15 0
13 29 -6 14 0
13 -29 -6 -14 0
14 27 28 -9 0
-14 9 0
-14 -28 0
-14 -27 0
15 -24 -4 0
-15 24 0
-15 4 0
16 -21 -26 -30 0
-16 21 0
-16 26 0
-16 30 0
-31 0
-2 0
-8 0
-11 0
-13 0
16 0

